c description: Random 4-CNF over 6 variables and 2 clauses
c generator: CNFgen (0.9.2)
c copyright: (C) 2012-2022 Massimo Lauria <massimo.lauria@uniroma1.it>
c url: https://massimolauria.net/cnfgen
c command line: cnfgen randkcnf 4 6 2
c
p cnf 6 2
-1 2 -3 -6 0
1 -2 3 -4 0
